1
89
27
62
96
95
59
67
87
57
85
90
78
20
86
47
53
0
98
74
39
21
61
19
26
82
43
5
22
63
66
16
55
25
37
24
44
42
2
51
40
11
65
77
83
81
94
14
36
73
28
45
48
15
10
68
8
32
29
49
75
80
9
33
58
60
72
17
6
79
56
91
84
88
23
7
69
64
92
41
71
30
35
52
18
97
13
54
50
38
31
4
93
70
12
34
76
46
99
3
